out/bwp_10_13_1_lp.out
14
-0 -0    1 2
3 6    5 7
0 10    2 11
-0 12    2 13
6 12    8 13
2 -0    7 2
3 3    8 5
-0 4    2 9
7 6    9 11
3 8    5 13
8 0    9 0
6 6    6 7
6 8    6 9
